41445 26300
55324 37482
31694 65060
6539 6813
38591 41358
8128 45176
60660 28929
9854 49132
4862 33233
58656 46613
781 14905
52551 48526
36051 26414
29605 58454
1734 31490
13909 9558
32223 22043
3906 41505
35962 54291
53008 55807
25068 33289
51937 29381
39715 59888
62247 57116
46932 49779
57140 38624
64265 59153
58945 22372
6146 8247
13584 16521
46842 5316
58301 17973
10626 49635
49278 8586
50993 6704
7420 40065
37007 33985
36375 14813
59595 43049
8091 7458
28634 27073
16405 4272
29735 47296
25482 37103
50278 28165
9666 8066
464 50103
14708 19980
54795 64024
46041 12033
26787 46541
9717 48425
1321 60636
59918 19310
31084 14889
61098 46910
